20
587 233 220
64 53 32
51 42 28
49 32 30
109 68 59
66 43 32
120 71 47
109 57 41
100 70 28
76 70 51
85 40 26
79 71 55
93 73 55
101 75 75
89 58 53
98 53 36
118 53 31
77 43 37
64 60 46
74 67 37
89 47 38
thpack7_30